3976
8565
3754
4795
4444
6567
4674
2199
5861
2265
8658
8796
9392
4044
6823
753
7838
10009
799
8910
2024
6584
5581
4858
9981
3500
3291
3521
1223
635
7395
5701
9271
7522
2290
1712
645
1785
2333
9236
2539
3361
6326
2547
10178
9591
5762
4371
3540
8872
5157
